
 102   30
  10   10   10   10   10   10   10   10   10   10   10   10   10   10   10   10   10   10   10   10   10   10   10   10   10   10   10   10   10   10

   0   0   0   0   0   0   0   0   0   0   0   0   0   0   0   0   0   0   0   0   0   0   0   0   0   0   0   0   0   0   0  31 2 3 4 5 6 7 8 9 10 11 12 14 15 16 17 18 19 20 21 22 23 24 25 26 28 30 32 35 38 40 44 
   7   0   0   0   0   0   0   0   3   0   0   0   0   0   2   0   0   0   0   0   0   0   1   0   0   0   0   0   0   0   0  16 77 67 60 59 58 56 55 50 48 47 46 45 43 42 29 27 
   7   0   0   0   0   0   0   0   0   0   0   1   0   0   0   0   2   0   0   0   0   0   0   0   0   0   1   0   0   2   0  12 77 54 50 46 43 42 41 39 37 34 29 27 
   3   0   0   0   4   0   0   0   0   0   0   0   0   0   0   0   0   0   0   0   0   0   0   0   0   0   0   0   0   0   0  12 101 99 77 62 61 60 58 49 48 39 37 13 
  10   0   0   0   0   0   2   0   3   0   0   7   0   0   0   1   0   0   0   0   0   0   0   0   0   0   0   0   1   0   0  16 100 95 94 78 77 76 75 67 66 62 58 54 50 49 48 31 
   7   0   1   0   0   0   0   0   7   5   0   0   0   0   0   0   0   0   2   0   0   1   0   0   0   0   4   0   0   0   0  15 100 95 94 79 77 75 67 66 62 60 58 54 49 47 31 
   2   0   0   0   0   0   0   0   0   0   0   0   0   0   9   0   0   0   0   1   0   7   0   1   0   0   0   1   0   0   0  18 100 99 97 94 79 77 65 63 62 61 59 58 52 50 49 48 39 33 
   5   0   0   0   0   0   0   0   5   0   0   0   1   0   0   0   0   0   0   0   0   0   0   0   0   1   0   0   0   0   1  16 100 98 95 94 77 74 67 66 65 64 58 52 48 46 45 33 
   3   0   0   0   8   0   0   0   0   0   0   0   0   0   0   0   7   0   0   0   0   0   0   0   0   0   0   0   0   0   0  17 101 100 99 97 80 76 72 67 66 63 60 58 56 53 52 42 36 
   6   0   0   0   0   0   0   0   0   0   0   7   6   0   0   0   8   0   0   0   1   0   0   0   0   0   0   0   6   0   0  18 98 95 92 79 78 77 76 75 73 68 66 63 60 59 54 51 49 48 
   2   0   0   0   6   1   0   0   0   0   0   0   0   0   0   0   0   0   0   0   6   0   0   0   0   6   8   0   0   8   0  17 94 77 76 75 68 67 66 64 63 62 60 59 58 55 52 50 48 
   6   0   0   0  10   0   0   0   0   0   0   0   0   0   0   0   0   0   4   0   0   0   0   0   0   0   0   0   0   7   0  17 101 100 99 98 97 79 75 74 67 66 65 64 63 56 52 50 47 
   2   0   0   0   0   0   0   0   0   0   0   5   0   0   0   0   0   0   0   0   0   0   0   0   0   0   0   0   0   0   0  19 100 98 97 92 78 76 74 73 71 66 65 64 63 59 57 56 55 52 50 
   5   1   0   0   0   9   0   0   0   0   0   0   0   0   0   0   0   1   7   0   0   0   0   7   1   0   0   0   0   0   0  16 101 100 99 97 94 93 77 76 71 64 63 62 58 56 50 46 
   5   0   0   0   0   0   0   2   0   0   0   0   0   0   3   0   0   6   0   0   0   0   0   0   5   0   5   0   0   0   0  13 98 96 93 87 75 73 66 63 60 58 54 48 37 
   3   0   0   0   0   0   6   0   0   0   0   0   0   0   0   0   0   0   0   0   0   5   0  10   0   0   7   0   0   5   0  17 100 99 98 96 92 79 78 77 73 72 70 66 63 62 57 55 54 
   3   0   0   0   0   6   0   0   0   0   0   0   0   0   0   0   0   0   0   3   0   0   0   0   0   0   0   0   0   0   0  15 101 99 97 95 94 93 76 74 72 66 65 58 57 56 39 
   3   0   0   0   0   0   0   0   0   0   0   0   6   0   0   0   0   7   0   0   0   0   5   0   0   0   0   4   0   0   0  15 98 97 96 95 93 91 78 77 76 75 71 62 57 49 45 
   7   0   0   0   0   0   0   0   0   0   0   0   0   0   0   0   0   0   0   6   0   0   0   0   4  10   0   0   0   0   0  20 98 97 96 95 93 92 91 78 77 76 75 72 71 70 67 66 64 63 60 57 
   1   0   0   0   0  10   0   0   0   0   0   0   0   0   0   0   0   0   0   0   0   0   0   0   0   0   0   0   0   0   0  20 98 97 95 94 93 91 87 77 76 74 73 72 71 67 66 64 63 60 58 57 
   8   0   0   0   0   0   0   0   0   0   0   0   0   0   0   0   0   0   0   0   0   0   0   0   7   4   0   0   0   0   0  16 101 100 98 97 95 94 93 91 75 74 72 70 63 61 57 47 
   1   0   0   0   0   0   0   0   8   0   0   0   0   1   0   6   6   7   2   0   0   0   0   0   0   0   0   0   0   0   0  14 100 99 94 93 80 79 76 74 72 70 64 58 55 41 
   6   0   2   0   0   0   0   0   0   0   0   0   0   0   0   6   0   0   0   2   0   0   0   0   0   0   0   0   0   0   0  14 101 99 95 94 93 77 76 73 72 67 64 63 57 46 
   9   0   0   0   0   0   0   0   0   0   0   6   6   0   0   7   0   0   0   0   0   0   0   0   0   0   0   0   0   0   0  20 99 98 95 94 93 92 88 87 80 75 74 72 71 70 66 65 63 61 57 56 
   9   0   0   0   0   0   0   0   0   0   0   0   4   0   0   0   0   0   0   0   0   0   0   3   0   0   0   0   0   0   0  17 101 98 97 93 92 77 76 73 72 71 67 66 65 63 61 57 49 
   2   5   0   0   0   0   0   0   0   0   0   0   0   0   0   7   0   0   0   0   0   0   0   0   0   0   0   9   0   0   0   9 98 93 86 77 67 62 56 48 47 
   8   0   0   0   0   0   0   0   0   4   0   0   0   0   0   1   0   8   0   0   4   0   0   0   0   7   0   0   7   0   0  14 100 99 98 97 94 75 73 72 71 66 63 57 52 49 
   6   0   6   0   0   0   0   0   0   0   1   0   0   0   0   0   0   0   0   0   0   4   0   0   4   0   0   0   0   3   0   9 101 100 92 88 80 70 67 52 43 
   5   0   0   1   0   0   0   7   0   5   0   0   0   8   0   0   4   0   8   0   0   0   6   0   0   0   0   0   0   0   0  18 101 97 96 93 92 88 87 86 79 75 74 73 72 70 69 66 65 63 
   8   0   0  10   0   0   0   0   0   0   6   0   0   0   0   0   0   0   0   0   0   0   0   0   0   0   0   0   0   0   0  15 99 98 97 96 93 89 88 83 78 77 70 65 64 63 58 
   6   0   0   0   0   0   0   0   7   9   0   0   0   0   0   0   0   3  10   8   0   0   0   7   0   0   0   0   0   0   0  13 101 99 98 97 88 87 73 72 71 64 63 57 52 
   2   0   0   0   0   0   0   0   0   0  10   0   0   0   0   0   0   0   0   0   0   0   0   3   0   5   0   5   0   0   0  14 99 98 93 92 88 87 73 72 71 70 66 64 63 57 
   2   0   0   0   0   0   0   0   0   0   0   0   0   0   0   0   0   6   0   0   0   0   0   0   4   0   0   6   5   0   0   8 93 89 86 75 72 70 57 47 
   8   9   0   8   0   2   0   0   0   9   0   0   0   0   0   0   0   0   0   0   0   0   0   0   0   0   0   0   0   0   0  11 99 93 91 87 83 82 76 73 64 62 58 
   9   0   0   0  10   0   0   0   0   0   0   0   0   2   0   7   0   0   0   0   0   0   0   0   0   0   0   0   0   0   0  14 98 96 93 92 90 87 86 83 79 74 73 71 70 66 
   6   0   0   4   0   0   5   0   0   0   0   0   0   0   8   0   0   0   6   0   0   0   0   0   7   0   0   0   0   0   7  12 94 93 92 89 88 84 83 79 77 71 65 59 
   9   0   0   0   9   0   6   0   0   0   0   0   0   0   0   0   0   5   0   0   0   0   0   0   0   0   5   0   6   0   0  10 97 94 92 89 76 70 69 67 64 56 
  10   0   0   0   0   0   0   4   0   5   0   0   5   0   0   0   0   0   0   0   0   0   0   0   0   0   0   0   0   0   0  14 97 96 93 90 88 87 85 84 80 77 75 74 71 69 
  10   0   0   5   0   0  10   0   5   0   0   0   0   0   0   7  10   0   0   0   0   0   0   0   0   0   0   0   0   0   0  13 92 91 90 89 86 85 83 78 75 73 71 70 69 
   7   0   0   0   0   0   0   0   0   0   0   0   9   4   0   0   0   0   0   0   0   0   0   0   0   0   0   0   0   0   0  13 98 93 91 90 88 87 85 83 75 73 69 66 65 
   7   3   0   0   0   5   0   0   0   0   4   0   0   0   0   0   0   0   7   0   0   0   0   5   0   0   0   7   0   0   0   9 96 91 88 87 86 73 66 65 57 
   1   0   0   0   0   0   0   0   0   7   0   0   0   0   0   0   0   0   0   0   0   0   0   0   0   0   0   0   0   0   0  11 96 89 88 86 85 83 82 73 70 69 62 
   6   0   9   0   0   0   0   0   0   0   0   0   5   0   7   0   0   0   0   0   5   6   0   0   0   0   0   0   0   0   0   9 96 95 87 84 83 75 74 64 63 
   3   0   6   0   0   0   0   0   0   5   0   7   0   4   4   0   0   0   5   0   0   0   0   0   0   0   0   0   0   0   0  11 96 90 89 88 87 85 84 83 71 69 65 
   8   9   6   6   6   0   0   0   5   0   0   0   0   0   0   0   0   0   0   0   0   0   8   8   0   0   0   0   0   0   0   9 99 92 89 86 84 82 72 69 63 
   1   8   0   0   5   0   0   0   0   0   0   0   0   0   0   0   0   0   0   0   0   7   0   0   5   0   0   0   0   0   0   9 96 92 90 89 87 83 79 75 70 
   9   0   0   0   0   0   0   7   0   0   6   0   0   0   0   0   0   0   3   0   0   0   0   0   6   0   0   0   0   0   0   8 96 92 83 81 78 76 73 71 
   3   0   0   0   6   0   0   5   0   0   0   0   0   0   0   6   0   0   0   0   0   0   0   0   0   0   0   0   0   0   0   6 89 88 72 71 70 57 
   2   0   0   0   3   0   0  10   0   0   0   8   0   0   0   0   0   0   0   0   0   0   4   0   0   0   0   0   7   0   0   7 90 87 84 83 82 70 64 
   3   0   0   0   0   0   0   0   0   0   0   0   0   0   0   0   6   0   0   0   0   0   0   8   5   0   0   0   0   0   0   7 96 88 82 80 72 70 69 
   5   0   0   7   4   0  10   0   0   4   0   0   0   0   7   0   0   0   6   9   0   0   8   0   0   0   8   0   0   0   0   7 93 91 85 84 70 69 67 
   6   0   0   0   0   0   0   0   0   0   0   0   0   0   0   4   0   0   0   0   0   0   0   0   0   0   0   0   0   0   6   8 93 91 90 89 85 84 82 69 
   4   0   0   0   0   0   0   8   0   0   0   0   3   6   0   0   0   0   0   0   0   0   5   0   0   0   0   0   0   0   0   8 96 92 88 86 85 82 77 69 
   5   0   0   0   0   0   0   0   0   0   0   0   0   0   0   0   0   0   0   0   0   0   0   0   0   7   0   0   0   0   0   4 97 71 65 56 
   3   0   3   0   0   0   0   7   0   0   0   0   0   0   8   0   0   0   0   9   0   0   0   0   0   0   0   0   2   0   5   6 95 91 88 86 84 69 
   6   0   0   0   0   7   0   0   0   0   0   0   0   0   4   0   0   0   0   0   0   0   0   5   0   0   0   0   0   0   0   4 91 84 83 82 
   4   0   0   0   0   0   0   0   0  10   0   0   0   7   0   0   0   0   6   0   0  10   0   0   0   0   0   0   0   0   0   3 85 83 69 
   2   0   0   0   0   0   0   0   0   0   0   9   0   0   0   0   0   0   0   0   0   0   9   0   0   0   0   0   7   0   0   3 92 84 69 
   2   0  10   0   0   0   0   0   0   0   0   0   0   0   0   0   0   0   0   0   0   0   0   8   8   0   8   0   0   0   0   3 87 85 69 
   7   0   0   0   0   0   0   0   0   0   0   0  10   0   0   6   0   0   0   0   0   0   0   0   0   0  10   0   0   0   0   2 85 65 
   7   0   0   0   0   0   0   0   0   0   0   0   0   0   0   0   0   0   0   0   0   0   0   5   0   0   0   0   0   0   0   3 86 85 84 
   7   0   0   0   0   0   0   0   0   0   0   3   0   0   0   0   0   0   0   0   7   0   0   0   0   0   0   0   0   0   0   2 90 74 
   1   0   7   0   8   0   0   0   0   0   0   0   7   0   0   7   0   0   7   0   0   0   0   0  10   0   0   0   0   0   7   2 90 85 
   3   0   0   0   0   7   0   0   0   6   0   0   0   0   0   0   0   0   0   0   0   0   0   0   0   0   0   0   0   0   0   2 86 85 
   4   0   8   0   0   7   9   0   0   0   0   0   0   0   0   0   0   0   0   0   0   0   0   0   0   0   0   0   0   0   0   2 82 81 
   3   0   0   8   0   0   0   0   0   0   0   0   0   0   0   0   0   0   0   0   0   0   0   0   0   0   0   0   0   0   0   2 89 84 
   8   0   0   0   0   0   0   0   0   0   0   4   0   0   0   0   5   0   0   0   0   0   0   0   0   0   0   0   8  10   0   2 83 82 
   8   0   7   0   0   0   0   0   0   6   0   0   0  10   0   0   0   7   0   0   0   0   0   0   0   0   0   0   0   0   0   1 72 
   1   0   4   0   0   0   0   0   0   0   0   0   0   0   0   0   0   8   0   9   0   0   0   0   0   0   0   0   0   0   0   1 81 
  10   9   7   0   0   0   0   0   0   0   0   0   0   0   7   0   0   0   0   0   0   0   0   0  10   0   0   0   0   0   0   1 81 
   6   0   0   0   0   0   0   0   0   0   0   0   0   0   6   0   7   0   0   5   0   0   0   0   0   0   0   0   0   6   0   1 82 
   1   5   0   0   0   0   0   0   5   0   0   0   7   0   0   0   0   0   0   0   0   0   0   9   0   0   0   0   0   0   0   1 83 
   8   0   7   5   0   0   0   0   0   0   0   0   5  10   0   0   0   0   0   0   0   0   0   0   0   0   0   0   0   0   0   1 84 
   5   0   0   0   0   0   0   0   0   0   7   0   6   0   0   0   7   0   0   0   0   0   0   0   0   0   0   0   0   0   0   1 81 
   4   0   0   0   0   0   0   0   0   0   0   0   8   0   0   0   0   0   0   0   0   4   0   0   0   6   0   0   0   0   0   1 82 
   1   5   0   0   0   0   5   0   0   7   0   0   0   0   0   0   0   0   0   0   7   0   0   0   0   0   0   0   0   0   8   1 88 
  10   0   0   6   0   0   0   0   0   4   0   0   0   8   0   0   0   0   0   0   0   0   0   0   8   0   0   6   0   0   0   1 81 
   8   0   0   0   0   0   0   0   0   0   0   0   0   0   0  10   0   5   0   0   0   0   7   0   0   0   0   0   0   0   0   1 87 
   6   0   0   0   0   0   4   0   0   0   0   0   0   0   0   0   5   0   0   0   0   0   0   0   0   0   0   0   0   0   0   1 91 
  10   0   0   0   0   0   3   0   0   0   0   0   0   0   0   0  10   5   0   0   0   0   0   0   0   4   3   0   0   0   0   1 86 
   4   0   0   0   0   0   0   0   0   0  10   0   0   0   0   0   0   0   8   0   0   0   0   0   7   0   0   0   0   0   0   1 102
   9   0   0   0   0   0   6   4   0   7   0   3   0   4   0   0   0   9   4   0   0   0   8   0   0   0   0   0   9   0   7   1 102
  10   0   0   0   0   8   0   0   0   0   0   0   0   0   0   6   0   0   0   0   0   0   0   0   0   0   6   5   0   0   0   1 102
   4   8   0   0   0   0   0   0   0   0   3   0   0   0   6   0   0   0  10   0   0   0   0   0   0   0   0   0   0   0   0   1 102
   1   0   0   0   0   0   0   0   0   0   0   0   0   0   0   0   0   0   6   0   0   0   3   0   0  10   0   7   0   0   0   1 102
   6   5   8   0   0   0   0   0   0   0   0   0   6   0   0   0   0   0   0   0   8   0   0   0   0   0   5   0   0   0   0   1 102
  10   0   0   0   0   0   0   0  10   0   0   0   0   0   0   0   0   0   0   0   0   0   0   0   0   0   0   0   7   0   0   1 102
   9   0   5   0   0   0   0   0   0   0   0   9   0   8   0   0   0   0   0   0   0   0   0   5   6   0   0   0   8   0   0   1 102
   9   0   6   0   0   0   0   0   0   0   0   0   0   0   0   0   0   0   0   0   0   0   0   0   0   0   9   5   0   0   0   1 102
   8   0   0   0   5   0   0   0   0   0   0   0   0   0   3   9   2   0   0   6   7   0   0   0   0   0   0   0   0   0   0   1 102
   9   0   0   0   1   4   0   6   0   0   0   0   0   0   0   0   5   0   0   8   0   0   0   0   0   6   0   0   0   0   0   1 102
   5   0   0   0   0   0   0   0   0   0   0   0   8   0   0   0   0   0   0   0   0   0   0   0   0   0   4   0   0   0   0   1 102
   7   0   0   0   0   0   0   0   0   0   0   0   0   0   6   0   0   0   0   0   0   0   0   0   0   0   0   8   0   0   0   1 102
   2   0   0   0   0   0   0   0   0   0   0   0   0   0   0   0   0   0   7   0   0   0   0   0   0   6   0   0   0   7   0   1 102
   7   0   0   0   0   0   0   0   0   7   6   0   0   0   0   0   0   0   0   0   7   0   0   0   0   0   0   0   0   0   0   1 102
   2   4   0   0   0   0   0   0   0   0   0   9   0   0   0   0   0   6   0   0   0   0   8   0   5   0   0   0   0   0   0   1 102
   7   0   0   0   0   0   0   0   0   0   0   0   0   0   0   0   0   0   0   0   0  10   0   0   0   0   0   0   0   0   7   1 102
   1   0   0   0   0   0   0   0   0   0   0   0   0   0   0   0   0   0   0   0   8   0   0   0   0   0   0   7   0   0   0   1 102
  10   5   0   0   5   0   0   0   0   5   7   0   0   0   0   0   0   0   0   0   0   0   0   0   0   0   0   0   0   0   0   1 102
   5   8   0   0   0   0   0   0   8   3   6   0   0   0  10   0   0   7   0   0   0   0   0   0   0   0   7   8   5   0   0   1 102
   9   0   0   0   0   0   0   0   0   0   0   0   0   0   0   0   0   0   0   0   0   6   0   0   0   0   0   0   0   0   0   1 102
   0   0   0   0   0   0   0   0   0   0   0   0   0   0   0   0   0   0   0   0   0   0   0   0   0   0   0   0   0   0   0   0 
